x04m01e0t1tp5
3131
3203
3251
3251
3259
3310
3310
3336
3336
3390
3390
3390
3390
3390
3390
3599
3599
3599
3599
3599
3599
3599
3599
3599
3599
3599
3599
3599
3599
3599
3599
3599
3599
3599
3599
3599
3622
3622
3622
3622
3622
3622
3622
3622
3622
3622
3622
3622
3622
3622
3622
3622
3622
3622
3622
3622
3622
3622
3622
3622
3622
3622
3622
3622
3622
3622
3622
3622
3622
3622
3622
3622
3622
3622
3622
3622
3622
3622
3622
3622
3622
3622
3622
3622
3622
3622
3622
3622
3622
3622
3622
3622
3622
3622
3622
3622
3622
3622
3622
3622
3622
3622
3622
3622
3622
3622
3622
3696
3696
3696
3696
3696
3696
3696
3696
3696
3696
3696
3696
3696
3696
3696
3696
3696
3696
3696
3696
3696
3696
3696
3696
3696
3696
3696
3696
3696
3696
3696
3696
3696
3696
3696
3696
3696
3696
3696
3696
3696
3696
3696
3696
3696
3696
3696
3696
3696
3696
3696
3696
3696
3696
3696
3696
3696
3696
3696
3696
3696
3696
3696
3696
3696
3696
3696
3696
3696
3696
3748
3748
3748
3748
3748
3748
3748
3748
3748
3748
3748
3748
3748
3748
3748
3748
3748
3748
3748
3748
3748
3748
3748
3748
3771
3771
3771
3771
3771
3771
3771
3771
3771
3771
3771
3771
3771
3771
3771
3771
3771
3858
3858
3858
3858
3858
3858
3858
3858
3858
3858
3858
3858
3858
3858
3858
3858
3858
3858
3858
3858
3858
3858
3858
3858
3858
3858
3858
3858
3858
3858
3858
3858
3858
3858
3858
3858
3858
3858
3858
3858
3858
3858
3858
3858
3858
3858
3858
3858
3858
3858
3858
3858
3858
4005
4005
4005
4005
4005
4005
4005
4005
4005
4005
4005
4005
4005
4005
4005
4005
4005
4005
4005
4005
4005
4005
4005
4005
4005
4005
4005
4005
4005
4005
4005
4005
4005
4005
4005
4005
4005
4005
4005
4005
4005
4005
4005
4005
4005
4005
4005
4005
4005
4005
4005
4005
4005
4005
4005
4005
4005
4005
4005
4005
4005
4005
4005
4005
4005
4005
4005
4005
4005
4005
4005
4005
4005
4005
4005
4005
4005
4005
4005
4005
4005
4005
4005
4005
4005
4005
4005
4005
4005
4005
4005
4005
4005
4005
4005
4005
4046
4046
4046
4046
4046
4046
4046
4046
4046
4046
4046
4046
4046
4046
4046
4046
4046
4046
4046
4046
4046
4046
4046
4046
4046
4046
4046
4046
4046
4046
4046
4046
4046
4046
4046
4046
4046
4046
4046
4046
4046
4046
4046
4046
4046
4046
4046
4046
4046
4046
4046
4046
4046
4046
4046
4046
4046
4046
4046
4046
4046
4046
4046
4046
4046
4046
4046
4046
4046
4046
4046
4046
4046
4046
4046
4046
4046
4046
4046
4046
4046
4046
4046
4046
4046
4046
4046
4046
4046
4046
4046
4046
4046
4046
4046
4046
4046
4046
4046
4046
4046
4046
4046
4046
4046
4046
4046
4046
4046
4046
4046
4046
4046
4046
4046
4046
4046
4046
4046
4046
4046
4046
4046
4046
4046
4046
4046
4046
4046
4046
4046
4046
4046
4046
4046
4046
4046
4046
4046
4046
4046
4046
4046
4046
4046
4046
4046
4046
4046
4046
4046
4046
4046
4046
4046
4046
4046
4046
4046
4046
4046
4046
4046
4046
4046
4046
4046
4046
4046
4046
4046
4046
4046
4046
4046
4046
4046
4046
4046
4046
4046
4046
4046
4046
4046
4046
4046
4046
4046
4046
4046
4046
4046
4046
4046
4046
4046
4046
4046
4046
4046
4046
4046
4046
4046
4046
4046
4046
4046
4046
4046
4046
4046
4046
4046
4046
4046
4046
4046
4046
4046
4046
4046
4046
4046
4046
4046
4046
4046
4046
4046
4046
4046
4046
4046
4046
4046
4046
4046
4046
4046
4046
4046
4046
4046
4046
4046
4046
4046
4046
4046
4046
4046
4046
4046
4046
4046
4046
4046
4046
4046
4046
4046
4046
4046
4046
4046
4046
4046
4046
4046
4046
4046
4046
4046
4046
4046
4046
4046
4046
4046
4046
4046
4046
4046
4046
4046
4046
4046
4046
4046
4046
4046
4046
4046
4046
4046
4046
4046
4046
4046
4046
4046
4046
4046
4046
4046
4046
4046
4046
4046
4046
4046
4046
4046
4046
4046
4046
4046
4046
4046
4046
4046
4046
4046
4046
4046
4046
4046
4046
4046
4046
4046
4046
4046
4046
4046
4046
4046
4046
4046
4046
4046
4046
4046
4046
4046
4046
4046
4046
4046
4046
4046
4046
4046
4046
4046
4046
4046
4046
4046
4046
4046
4046
4046
4046
4046
4046
4046
4046
4046
4046
4046
4046
4046
4046
4046
4046
4046
4046
4046
4046
4046
4046
4046
4046
4046
4046
4046
4046
4046
4046
4046
4046
4046
4046
4046
4046
4046
4046
4046
4046
4046
4046
4046
4046
4046
4046
4046
4046
4046
4046
4046
4046
4046
4046
4046
4046
4046
4046
4046
4046
4046
4046
4046
4046
4046
4046
4046
4046
4046
4046
4046
4046
4046
4046
4046
4046
4046
4046
4046
4046
4046
4046
4046
4046
4046
4046
4046
4046
4046
4046
4046
4046
4046
4046
4046
4046
4046
4046
4046
4046
4046
4046
4046
4046
4046
4046
4046
4046
4046
4046
4046
4046
4046
4046
4046
4046
4046
4046
4046
4046
4046
4046
4046
4046
4046
4046
4046
4046
4046
4046
4046
4046
4046
4046
4046
4046
4046
4046
4046
4046
4046
4046
4046
4046
4046
4046
4046
4046
4046
4046
4046
4046
4046
4046
4046
4046
4046
4046
4046
4046
4046
4046
4046
4046
4046
4046
4046
4046
4046
4046
4046
4046
4046
4046
4046
4046
4046
4046
4046
4046
4046
4046
4046
4046
4046
4046
4046
4046
4046
4046
4046
4046
4046
4046
4046
4046
4046
4046
4046
4046
4046
4046
4046
4046
4046
4046
4046
4046
4046
4046
4046
4046
4046
4046
4046
4046
4046
4046
4046
4046
4046
4046
4046
4046
4046
4046
4046
4046
4046
4046
4046
4046
4046
4046
4046
4046
4046
4046
4046
4046
4046
4046
4046
4046
4046
4046
4046
4046
4046
4046
4046
4046
4046
4046
4046
4046
4046
4046
4046
4046
4046
4046
4046
4046
4046
4046
4046
4046
4046
4046
4046
